Min
x1 + x2 + x3 + x4 + x5 + x6

Subject To
x1 + x6 >= 35
x1 + x2 >= 40
x2 + x3 >= 50
x3 + x4 >= 45
x4 + x5 >= 55
x5 + x6 >= 30

Bounds
x1 >= 0
x2 >= 0
x3 >= 0
x4 >= 0
x5 >= 0
x6 >= 0

Integer
x1 x2 x3 x4 x5 x6

End


